# 41991
param k := 6;
param n := 60;
param s := 1;
set E :=  (0,13) (1,14) (1,17) (1,28) (1,34) (1,39) (1,48) (1,52) (2,20) (3,29) (3,34) (3,35) (3,58) (4,34) (4,36) (5,21) (5,44) (5,59) (6,36) (6,48) (7,14) (8,10) (8,56) (9,17) (10,27) (11,15) (11,21) (12,20) (13,25) (13,33) (13,57) (16,46) (18,44) (19,50) (20,37) (20,57) (20,58) (22,50) (23,42) (24,59) (25,51) (26,38) (26,41) (26,49) (27,33) (29,42) (29,51) (30,32) (30,43) (31,37) (32,43) (36,48) (40,41) (41,45) (42,50) (43,44) (43,49) (43,53) (46,57) (47,59) (48,59) (53,55) (54,59);